certificates/rado_a14_c170_N25.drat
-23 -25 0
-25 0
13 0
-1 0
23 0
-11 0
17 0
9 0
-5 0
-21 0
0
